% Logging successfully configured
%%%mzn-stat: initTime=0.034752632
%%%mzn-stat: objective=1136
%%%mzn-stat: nodes=9769
%%%mzn-stat: restarts=0
%%%mzn-stat: peakDepth=830
%%%mzn-stat: solveTime=3.158381301
%%%mzn-stat: variables=1414
%%%mzn-stat: propagators=6027
%%%mzn-stat: failures=6438
%%%mzn-stat: propagations=6263646
%%%mzn-stat: nogoods=6438
%%%mzn-stat: numAtomicConstraintsPropagated=0
%%%mzn-stat: circuitNumber4951PropagationsThatFoundConflict=1967
%%%mzn-stat: circuitNumber4951TotalFixedEdgesAtConflict=162175
%%%mzn-stat: circuitNumber4951NumberOfConflicts=1967
%%%mzn-stat: circuitNumber4951PropagationsThatPruned=4120
%%%mzn-stat: circuitNumber4951PropagationsTotal=14762
%%%mzn-stat: AverageConflictSize=21.605001553277415
%%%mzn-stat: NumUnitNogoodsLearned=0
%%%mzn-stat: AverageLearnedNogoodLength=47.03898726312519
%%%mzn-stat: AverageBacktrackAmount=0
%%%mzn-stat: AverageLbd=36.73920472196334
%%%mzn-stat: 2AutonomousSearchNumBackupCalled=766
%%%mzn-stat: 2AutonomousSearchNumPredicatesRemoved=0
%%%mzn-stat: 2AutonomousSearchNumCalls=767
%%%mzn-stat: 2AutonomousSearchNumPredicatesAdded=5453
%%%mzn-stat: 2AutonomousSearchAverageSizeOfHeap=7.1095176010430245
%%%mzn-stat: 2AutonomousSearchNumAssignedPredicatesEncountered=5453
%%%mzn-stat-end
maxleg = 1136;
succ = array1d(1..100,[35, 11, 26, 7, 12, 8, 16, 28, 6, 25, 15, 14, 4, 9, 23, 19, 40, 42, 22, 66, 33, 34, 49, 30, 32, 5, 2, 43, 13, 31, 37, 39, 41, 38, 27, 3, 57, 36, 47, 54, 24, 44, 10, 56, 50, 69, 71, 55, 73, 68, 29, 79, 21, 98, 46, 1, 59, 70, 90, 89, 87, 51, 64, 76, 52, 65, 48, 95, 77, 91, 81, 100, 75, 53, 86, 20, 80, 74, 83, 45, 17, 96, 85, 63, 61, 60, 88, 78, 67, 58, 62, 97, 18, 72, 99, 84, 82, 93, 94, 92]);
% time elapsed: 8.38 s
----------
%%%mzn-stat: initTime=0.034752632
%%%mzn-stat: objective=1000
%%%mzn-stat: nodes=10590
%%%mzn-stat: restarts=0
%%%mzn-stat: peakDepth=830
%%%mzn-stat: solveTime=3.16191159
%%%mzn-stat: variables=1414
%%%mzn-stat: propagators=6027
%%%mzn-stat: failures=6438
%%%mzn-stat: propagations=6275348
%%%mzn-stat: nogoods=6438
%%%mzn-stat: numAtomicConstraintsPropagated=0
%%%mzn-stat: circuitNumber4951PropagationsThatFoundConflict=1967
%%%mzn-stat: circuitNumber4951TotalFixedEdgesAtConflict=162175
%%%mzn-stat: circuitNumber4951NumberOfConflicts=1967
%%%mzn-stat: circuitNumber4951PropagationsThatPruned=4125
%%%mzn-stat: circuitNumber4951PropagationsTotal=14833
%%%mzn-stat: AverageConflictSize=21.605001553277415
%%%mzn-stat: NumUnitNogoodsLearned=0
%%%mzn-stat: AverageLearnedNogoodLength=47.03898726312519
%%%mzn-stat: AverageBacktrackAmount=0
%%%mzn-stat: AverageLbd=36.73920472196334
%%%mzn-stat: 2AutonomousSearchNumBackupCalled=1521
%%%mzn-stat: 2AutonomousSearchNumPredicatesRemoved=0
%%%mzn-stat: 2AutonomousSearchNumCalls=1523
%%%mzn-stat: 2AutonomousSearchNumPredicatesAdded=5453
%%%mzn-stat: 2AutonomousSearchAverageSizeOfHeap=7.1608667104399215
%%%mzn-stat: 2AutonomousSearchNumAssignedPredicatesEncountered=10906
%%%mzn-stat-end
maxleg = 1000;
succ = array1d(1..100,[35, 11, 26, 7, 12, 8, 16, 28, 6, 25, 15, 14, 4, 9, 23, 19, 40, 42, 22, 66, 33, 34, 49, 30, 32, 5, 2, 43, 13, 31, 37, 39, 41, 38, 27, 3, 57, 36, 47, 54, 24, 44, 10, 56, 50, 69, 71, 55, 73, 68, 29, 79, 21, 98, 46, 60, 59, 70, 90, 89, 1, 51, 64, 76, 52, 65, 48, 95, 77, 91, 81, 100, 75, 53, 86, 20, 80, 87, 83, 45, 17, 96, 85, 63, 61, 93, 88, 74, 67, 58, 62, 97, 78, 72, 99, 84, 82, 18, 94, 92]);
% time elapsed: 8.39 s
----------
%%%mzn-stat: initTime=0.034752632
%%%mzn-stat: objective=643
%%%mzn-stat: nodes=11511
%%%mzn-stat: restarts=0
%%%mzn-stat: peakDepth=830
%%%mzn-stat: solveTime=3.175069946
%%%mzn-stat: variables=1414
%%%mzn-stat: propagators=6027
%%%mzn-stat: failures=6480
%%%mzn-stat: propagations=6318366
%%%mzn-stat: nogoods=6480
%%%mzn-stat: numAtomicConstraintsPropagated=0
%%%mzn-stat: circuitNumber4951PropagationsThatFoundConflict=1968
%%%mzn-stat: circuitNumber4951TotalFixedEdgesAtConflict=162233
%%%mzn-stat: circuitNumber4951NumberOfConflicts=1968
%%%mzn-stat: circuitNumber4951PropagationsThatPruned=4145
%%%mzn-stat: circuitNumber4951PropagationsTotal=15022
%%%mzn-stat: AverageConflictSize=21.517746913580247
%%%mzn-stat: NumUnitNogoodsLearned=0
%%%mzn-stat: AverageLearnedNogoodLength=46.86435185185185
%%%mzn-stat: AverageBacktrackAmount=0
%%%mzn-stat: AverageLbd=36.56203703703704
%%%mzn-stat: 2AutonomousSearchNumBackupCalled=2268
%%%mzn-stat: 2AutonomousSearchNumPredicatesRemoved=0
%%%mzn-stat: 2AutonomousSearchNumCalls=2271
%%%mzn-stat: 2AutonomousSearchNumPredicatesAdded=8124
%%%mzn-stat: 2AutonomousSearchAverageSizeOfHeap=7.2818141787758695
%%%mzn-stat: 2AutonomousSearchNumAssignedPredicatesEncountered=16537
%%%mzn-stat-end
maxleg = 643;
succ = array1d(1..100,[35, 11, 26, 7, 12, 8, 16, 28, 6, 25, 15, 14, 4, 9, 23, 19, 40, 42, 22, 66, 33, 34, 49, 30, 32, 5, 2, 43, 13, 31, 37, 39, 41, 38, 27, 3, 57, 36, 47, 54, 24, 48, 10, 18, 50, 55, 71, 67, 73, 68, 29, 79, 21, 98, 69, 44, 59, 70, 90, 89, 87, 51, 64, 97, 1, 65, 82, 95, 77, 91, 81, 76, 75, 53, 86, 20, 80, 74, 83, 45, 17, 96, 85, 63, 61, 60, 88, 78, 46, 58, 62, 100, 56, 52, 99, 84, 92, 93, 94, 72]);
% time elapsed: 8.40 s
----------
%%%mzn-stat: initTime=0.034752632
%%%mzn-stat: objective=452
%%%mzn-stat: nodes=12995
%%%mzn-stat: restarts=0
%%%mzn-stat: peakDepth=830
%%%mzn-stat: solveTime=3.299131585
%%%mzn-stat: variables=1414
%%%mzn-stat: propagators=6027
%%%mzn-stat: failures=6817
%%%mzn-stat: propagations=6656281
%%%mzn-stat: nogoods=6817
%%%mzn-stat: numAtomicConstraintsPropagated=0
%%%mzn-stat: circuitNumber4951PropagationsThatFoundConflict=2072
%%%mzn-stat: circuitNumber4951TotalFixedEdgesAtConflict=169714
%%%mzn-stat: circuitNumber4951NumberOfConflicts=2072
%%%mzn-stat: circuitNumber4951PropagationsThatPruned=4493
%%%mzn-stat: circuitNumber4951PropagationsTotal=16197
%%%mzn-stat: AverageConflictSize=20.90538359982397
%%%mzn-stat: NumUnitNogoodsLearned=0
%%%mzn-stat: AverageLearnedNogoodLength=46.97638257297932
%%%mzn-stat: AverageBacktrackAmount=0
%%%mzn-stat: AverageLbd=35.98665101951005
%%%mzn-stat: 2AutonomousSearchNumBackupCalled=3024
%%%mzn-stat: 2AutonomousSearchNumPredicatesRemoved=0
%%%mzn-stat: 2AutonomousSearchNumCalls=3028
%%%mzn-stat: 2AutonomousSearchNumPredicatesAdded=11091
%%%mzn-stat: 2AutonomousSearchAverageSizeOfHeap=7.434610303830912
%%%mzn-stat: 2AutonomousSearchNumAssignedPredicatesEncountered=22512
%%%mzn-stat-end
maxleg = 452;
succ = array1d(1..100,[35, 11, 26, 7, 12, 8, 16, 28, 6, 25, 15, 14, 4, 9, 23, 19, 40, 42, 22, 66, 33, 34, 61, 30, 32, 5, 2, 43, 13, 31, 37, 39, 41, 38, 27, 3, 57, 36, 47, 49, 24, 44, 10, 56, 50, 69, 71, 55, 54, 68, 29, 79, 21, 73, 46, 60, 59, 70, 90, 89, 87, 51, 64, 76, 52, 65, 48, 95, 77, 91, 81, 100, 75, 53, 86, 20, 80, 74, 83, 45, 17, 96, 85, 63, 1, 93, 88, 78, 67, 58, 62, 97, 98, 72, 99, 84, 82, 18, 94, 92]);
% time elapsed: 8.53 s
----------
%%%mzn-stat: initTime=0.034752632
%%%mzn-stat: objective=323
%%%mzn-stat: nodes=13883
%%%mzn-stat: restarts=0
%%%mzn-stat: peakDepth=830
%%%mzn-stat: solveTime=3.310880589
%%%mzn-stat: variables=1414
%%%mzn-stat: propagators=6027
%%%mzn-stat: failures=6848
%%%mzn-stat: propagations=6697037
%%%mzn-stat: nogoods=6848
%%%mzn-stat: numAtomicConstraintsPropagated=0
%%%mzn-stat: circuitNumber4951PropagationsThatFoundConflict=2081
%%%mzn-stat: circuitNumber4951TotalFixedEdgesAtConflict=170420
%%%mzn-stat: circuitNumber4951NumberOfConflicts=2081
%%%mzn-stat: circuitNumber4951PropagationsThatPruned=4527
%%%mzn-stat: circuitNumber4951PropagationsTotal=16380
%%%mzn-stat: AverageConflictSize=20.84798481308411
%%%mzn-stat: NumUnitNogoodsLearned=0
%%%mzn-stat: AverageLearnedNogoodLength=46.877044392523366
%%%mzn-stat: AverageBacktrackAmount=0
%%%mzn-stat: AverageLbd=35.87573014018692
%%%mzn-stat: 2AutonomousSearchNumBackupCalled=3765
%%%mzn-stat: 2AutonomousSearchNumPredicatesRemoved=0
%%%mzn-stat: 2AutonomousSearchNumCalls=3770
%%%mzn-stat: 2AutonomousSearchNumPredicatesAdded=13266
%%%mzn-stat: 2AutonomousSearchAverageSizeOfHeap=7.5562334217506635
%%%mzn-stat: 2AutonomousSearchNumAssignedPredicatesEncountered=28487
%%%mzn-stat-end
maxleg = 323;
succ = array1d(1..100,[35, 11, 26, 7, 12, 8, 16, 28, 6, 25, 15, 14, 4, 9, 23, 19, 40, 42, 22, 66, 33, 34, 61, 30, 32, 5, 2, 43, 13, 31, 37, 39, 41, 49, 27, 3, 57, 36, 47, 54, 24, 48, 10, 18, 50, 38, 71, 67, 73, 68, 29, 79, 21, 98, 46, 44, 59, 70, 90, 55, 87, 51, 64, 76, 52, 65, 89, 95, 77, 91, 81, 100, 75, 53, 86, 20, 80, 74, 83, 45, 17, 96, 85, 63, 1, 60, 88, 78, 69, 58, 62, 97, 56, 72, 99, 84, 82, 93, 94, 92]);
% time elapsed: 8.55 s
----------
%%%mzn-stat: initTime=0.034752632
%%%mzn-stat: objective=304
%%%mzn-stat: nodes=14696
%%%mzn-stat: restarts=0
%%%mzn-stat: peakDepth=830
%%%mzn-stat: solveTime=3.31550501
%%%mzn-stat: variables=1414
%%%mzn-stat: propagators=6027
%%%mzn-stat: failures=6853
%%%mzn-stat: propagations=6713750
%%%mzn-stat: nogoods=6853
%%%mzn-stat: numAtomicConstraintsPropagated=0
%%%mzn-stat: circuitNumber4951PropagationsThatFoundConflict=2081
%%%mzn-stat: circuitNumber4951TotalFixedEdgesAtConflict=170420
%%%mzn-stat: circuitNumber4951NumberOfConflicts=2081
%%%mzn-stat: circuitNumber4951PropagationsThatPruned=4535
%%%mzn-stat: circuitNumber4951PropagationsTotal=16476
%%%mzn-stat: AverageConflictSize=20.840799649788416
%%%mzn-stat: NumUnitNogoodsLearned=0
%%%mzn-stat: AverageLearnedNogoodLength=46.85685101415439
%%%mzn-stat: AverageBacktrackAmount=0
%%%mzn-stat: AverageLbd=35.85889391507369
%%%mzn-stat: 2AutonomousSearchNumBackupCalled=4490
%%%mzn-stat: 2AutonomousSearchNumPredicatesRemoved=0
%%%mzn-stat: 2AutonomousSearchNumCalls=4496
%%%mzn-stat: 2AutonomousSearchNumPredicatesAdded=14039
%%%mzn-stat: 2AutonomousSearchAverageSizeOfHeap=7.6663701067615655
%%%mzn-stat: 2AutonomousSearchNumAssignedPredicatesEncountered=34468
%%%mzn-stat-end
maxleg = 304;
succ = array1d(1..100,[35, 11, 26, 7, 12, 8, 16, 28, 6, 25, 15, 14, 4, 9, 23, 19, 40, 42, 22, 66, 33, 34, 61, 30, 32, 5, 2, 43, 13, 31, 37, 39, 41, 49, 27, 3, 57, 36, 47, 54, 24, 48, 10, 18, 50, 38, 71, 67, 73, 68, 62, 79, 21, 98, 46, 44, 59, 70, 90, 55, 87, 29, 64, 76, 52, 65, 89, 95, 77, 91, 81, 100, 75, 53, 86, 20, 80, 74, 83, 45, 17, 96, 85, 63, 1, 60, 88, 78, 69, 58, 51, 97, 56, 72, 99, 84, 82, 93, 94, 92]);
% time elapsed: 8.55 s
----------
%%%mzn-stat: initTime=0.034752632
%%%mzn-stat: objective=295
%%%mzn-stat: nodes=16172
%%%mzn-stat: restarts=0
%%%mzn-stat: peakDepth=830
%%%mzn-stat: solveTime=3.3629772190000002
%%%mzn-stat: variables=1414
%%%mzn-stat: propagators=6027
%%%mzn-stat: failures=7022
%%%mzn-stat: propagations=6901797
%%%mzn-stat: nogoods=7022
%%%mzn-stat: numAtomicConstraintsPropagated=0
%%%mzn-stat: circuitNumber4951PropagationsThatFoundConflict=2105
%%%mzn-stat: circuitNumber4951TotalFixedEdgesAtConflict=172019
%%%mzn-stat: circuitNumber4951NumberOfConflicts=2105
%%%mzn-stat: circuitNumber4951PropagationsThatPruned=4645
%%%mzn-stat: circuitNumber4951PropagationsTotal=17291
%%%mzn-stat: AverageConflictSize=20.508829393335233
%%%mzn-stat: NumUnitNogoodsLearned=0
%%%mzn-stat: AverageLearnedNogoodLength=46.24309313585873
%%%mzn-stat: AverageBacktrackAmount=0
%%%mzn-stat: AverageLbd=35.24836228994588
%%%mzn-stat: 2AutonomousSearchNumBackupCalled=5228
%%%mzn-stat: 2AutonomousSearchNumPredicatesRemoved=0
%%%mzn-stat: 2AutonomousSearchNumCalls=5235
%%%mzn-stat: 2AutonomousSearchNumPredicatesAdded=19125
%%%mzn-stat: 2AutonomousSearchAverageSizeOfHeap=7.898567335243553
%%%mzn-stat: 2AutonomousSearchNumAssignedPredicatesEncountered=41349
%%%mzn-stat-end
maxleg = 295;
succ = array1d(1..100,[35, 11, 26, 7, 12, 8, 16, 28, 6, 25, 15, 14, 4, 9, 23, 19, 40, 42, 22, 66, 33, 34, 61, 30, 32, 5, 2, 43, 13, 31, 37, 39, 41, 51, 27, 3, 57, 36, 47, 49, 24, 48, 54, 18, 50, 38, 71, 67, 73, 68, 62, 79, 21, 98, 46, 44, 59, 70, 90, 55, 87, 10, 64, 76, 52, 65, 89, 95, 77, 91, 81, 100, 75, 53, 86, 20, 80, 74, 83, 45, 17, 96, 85, 63, 1, 60, 88, 78, 69, 58, 29, 97, 56, 72, 99, 84, 82, 93, 94, 92]);
% time elapsed: 8.60 s
----------
%%%mzn-stat: initTime=0.034752632
%%%mzn-stat: objective=295
%%%mzn-stat: nodes=5958394
%%%mzn-stat: restarts=0
%%%mzn-stat: peakDepth=830
%%%mzn-stat: solveTime=1795.367985201
%%%mzn-stat: variables=1414
%%%mzn-stat: propagators=6027
%%%mzn-stat: failures=3173389
%%%mzn-stat: propagations=2748373200
%%%mzn-stat: nogoods=3173389
%%%mzn-stat: numAtomicConstraintsPropagated=0
%%%mzn-stat: circuitNumber4951PropagationsThatFoundConflict=173751
%%%mzn-stat: circuitNumber4951TotalFixedEdgesAtConflict=15269463
%%%mzn-stat: circuitNumber4951NumberOfConflicts=173751
%%%mzn-stat: circuitNumber4951PropagationsThatPruned=750989
%%%mzn-stat: circuitNumber4951PropagationsTotal=6571395
%%%mzn-stat: AverageConflictSize=32.24973805606561
%%%mzn-stat: NumUnitNogoodsLearned=0
%%%mzn-stat: AverageLearnedNogoodLength=74.1791122991855
%%%mzn-stat: AverageBacktrackAmount=0
%%%mzn-stat: AverageLbd=24.950799602569997
%%%mzn-stat: 2AutonomousSearchNumBackupCalled=5228
%%%mzn-stat: 2AutonomousSearchNumPredicatesRemoved=0
%%%mzn-stat: 2AutonomousSearchNumCalls=5235
%%%mzn-stat: 2AutonomousSearchNumPredicatesAdded=27909
%%%mzn-stat: 2AutonomousSearchAverageSizeOfHeap=7.898567335243553
%%%mzn-stat: 2AutonomousSearchNumAssignedPredicatesEncountered=41349
%%%mzn-stat-end
